NAME: rue_20_3
TYPE: TSP
DIMENSION: 20
EDGE_WEIGHT_TYPE: EUC_2D
NODE_COORD_SECTION
1 17 29
2 6 40
3 36 17
4 2 3
5 16 31
6 26 34
7 19 26
8 24 21
9 36 30
10 40 17
11 4 16
12 34 11
13 13 39
14 5 30
15 16 37
16 21 3
17 39 12
18 11 24
19 35 2
20 32 28

